24 4
95 40 24 59 29 53 28 67 52 100 48 45 26 65 96 40 66 11 71 25 56 94 86 16
52 58 100 18 62 24 46 38 86 69 75 84 19 25 89 36 30 51 24 52 88 97 73 85
42 77 46 91 14 11 35 38 24 80 54 63 22 99 46 91 31 70 92 12 14 77 53 95
36 78 48 21 49 80 24 15 33 80 77 90 56 38 20 65 60 96 13 69 39 63 94 35
